/* Objective function */
min: - 0.0054fpdi - 0.0054fpdo + 0.05apdi + 0.05apdo + 0.0002pi + 0.0002po - 0.5fsi - 0.5fso;

apdi = 0.0 hi + -0.0 li + 10.43339 ri + -0.0053 ci + -1.48621 si + -0.0 ti + 0.11118 fTempIi + 0.0041 ami + -118.41308;
asi = 0.0 hi + 0.0 li + -0.0 ri + -0.0 ci + 0.0 si + -0.0 ti + 0.0 fTempIi + 5e-05 ami + 0.00946;
aTempOi = 0.0 hi + 0.0 li + 0.30447 ri + -0.03232 ci + -0.04155 si + -0.0 ti + 0.76702 fTempIi + -0.00014 ami + 6.88791;
fpdi = 0.0 hi + 0.0 li + 10.85239 ri + -9.10559 ci + -0.01911 si + -0.0 ti + -0.59329 fTempIi + 6e-05 ami + 306.79903;
fsi = 0.0 hi + 0.0 li + -0.00015 ri + -0.03412 ci + 2e-05 si + -0.0 ti + 0.00085 fTempIi + -0.0 ami + 2.17627;
fTempOi = 0.0 hi + 0.0 li + -0.30143 ri + 0.0322 ci + 0.04102 si + 0.0 ti + 0.24953 fTempIi + -0.00012 ami + 9.51537;
pi = 0.0 hi + -0.0 li + 591.2625 ri + 3.125 ci + -59.3732 si + -0.0 ti + -0.0 fTempIi + 0.0 ami + 2975.239;

apdo = 0.0 ho + 0.0 lo + 12.59881 ro + 0.00476 co + -1.89481 so + 0.0 to + 0.12862 fTempIo + 0.00486 amo + -156.84908;
aso = 0.0 ho + 0.0 lo + 0.0 ro + -0.0 co + -0.0 so + -0.0 to + 0.0 fTempIo + 5e-05 amo + 0.00946;
aTempOo = 0.0 ho + -0.0 lo + -0.3203 ro + 0.03822 co + 0.05492 so + -0.0 to + 0.74104 fTempIo + 0.00015 amo + -0.43625;
fpdo = 0.0 ho + 0.0 lo + 8.72019 ro + -7.01702 co + 0.02063 so + -0.0 to + -0.49967 fTempIo + -5e-05 amo + 252.08504;
fso = 0.0 ho + 0.0 lo + 0.00014 ro + -0.03 co + -3e-05 so + -0.0 to + 0.00067 fTempIo + 0.0 amo + 2.04008;
fTempOo = 0.0 ho + 0.0 lo + 0.31643 ro + -0.03722 co + -0.05405 so + -0.0 to + 0.2659 fTempIo + 0.00013 amo + 12.61079;
po = 0.0 ho + 0.0 lo + 513.02778 ro + 3.16667 co + -53.05333 so + 0.0 to + 0.0 fTempIo + 0.0 amo + 1981.92222;

/* Variable bounds */
aTempOi > 18.6;
1 =r6i + r8i + r10i + r12i + r14i;
ri =6r6i + 8r8i + 10r10i + 12r12i + 14r14i;
1 =s30i + s40i + s50i + s60i;
si =30s30i + 40s40i + 50s50i + 60s60i;
ti = 3;
apdi > 100;
apdi < 300;
asi > 0;
asi < 3;
aTempOi > 5;
aTempOi < 25;
fpdi > 100;
fpdi < 300;
fsi > 0;
fsi < 1.25;
fTempOi > 5;
fTempOi < 25;
pi > 0;
ri > 6;
ri < 14;
ci > 28;
ci < 60;
si > 25;
si < 60;
ti > 1;
ti < 3;
fTempIi > 5;
fTempIi < 25;

/* aTempOo < 11.4; */
1 =r6o + r8o + r10o + r12o + r14o;
ro =6r6o + 8r8o + 10r10o + 12r12o + 14r14o;
1 =s25o + s30o + s40o;
so =25s25o + 30s30o + 40s40o;
to = 1;
apdo > 100;
apdo < 300;
aso > 0;
aso < 3;
aTempOo > 5;
aTempOo < 25;
fpdo > 100;
fpdo < 300;
fso > 0;
fso < 1.25;
fTempOo > 5;
fTempOo < 25;
po > 0;
ro > 6;
ro < 14;
co > 32;
co < 60;
so > 25;
so < 60;
to > 1;
to < 3;
fTempIo > 5;
fTempIo < 25;
int hi,li,si,ti,ci,ri,ami;
int ho,lo,so,to,co,ro,amo;
bin s25i,s30i,s40i,s50i,s60i,r6i,r8i,r10i,r12i,r14i;
bin s25o,s30o,s40o,s50o,s60o,r6o,r8o,r10o,r12o,r14o;
